;; Mutation-Based Equivalence Benchmark
;; Source:     AutomatArk / instance05112.smt2
;; Mutations:  star_to_plus
;; Status:     sat
;;
;; Original regex vs mutated regex
;; Equivalence check: unsat ⟺ L(R1) = L(R2)

(set-info :smt-lib-version 2.6)
(set-info :category "mutation")
(set-info :status sat)
(set-logic QF_S)


;; R1: original
;; R2: mutated (star_to_plus)
(assert
  (not
    (=
      (re.++ (re.opt (re.union (str.to_re "P") (str.to_re "|") (str.to_re "p"))) (re.opt (re.union (str.to_re "OST") (str.to_re "ost"))) (re.opt (str.to_re ".")) (re.* (re.union (str.to_re " ") (str.to_re "\u{9}") (str.to_re "\u{a}") (str.to_re "\u{c}") (str.to_re "\u{d}"))) (re.opt (re.union (str.to_re "O") (str.to_re "|") (str.to_re "o") (str.to_re "0"))) (re.opt (re.union (str.to_re "ffice") (str.to_re "FFICE"))) (re.opt (str.to_re ".")) (re.* (re.union (str.to_re " ") (str.to_re "\u{9}") (str.to_re "\u{a}") (str.to_re "\u{c}") (str.to_re "\u{d}"))) (re.union (str.to_re "B") (str.to_re "|") (str.to_re "b")) (re.opt (re.union (str.to_re "O") (str.to_re "|") (str.to_re "o") (str.to_re "0"))) (re.opt (re.union (str.to_re "X") (str.to_re "|") (str.to_re "x"))) (re.opt (str.to_re ".")) (re.+ (re.union (str.to_re " ") (str.to_re "\u{9}") (str.to_re "\u{a}") (str.to_re "\u{c}") (str.to_re "\u{d}"))) (re.opt (str.to_re "#")) (re.+ (re.range "0" "9")) (str.to_re "\u{a}"))
      (re.++ (re.opt (re.union (str.to_re "P") (str.to_re "|") (str.to_re "p"))) (re.opt (re.union (str.to_re "OST") (str.to_re "ost"))) (re.opt (str.to_re ".")) (re.* (re.union (str.to_re " ") (str.to_re "\u{9}") (str.to_re "\u{a}") (str.to_re "\u{c}") (str.to_re "\u{d}"))) (re.opt (re.union (str.to_re "O") (str.to_re "|") (str.to_re "o") (str.to_re "0"))) (re.opt (re.union (str.to_re "ffice") (str.to_re "FFICE"))) (re.opt (str.to_re ".")) (re.+ (re.union (str.to_re " ") (str.to_re "\u{9}") (str.to_re "\u{a}") (str.to_re "\u{c}") (str.to_re "\u{d}"))) (re.union (str.to_re "B") (str.to_re "|") (str.to_re "b")) (re.opt (re.union (str.to_re "O") (str.to_re "|") (str.to_re "o") (str.to_re "0"))) (re.opt (re.union (str.to_re "X") (str.to_re "|") (str.to_re "x"))) (re.opt (str.to_re ".")) (re.+ (re.union (str.to_re " ") (str.to_re "\u{9}") (str.to_re "\u{a}") (str.to_re "\u{c}") (str.to_re "\u{d}"))) (re.opt (str.to_re "#")) (re.+ (re.range "0" "9")) (str.to_re "\u{a}")))))

(check-sat)
(exit)
